letting n =  10
letting blocks =  [[1, 1], [1, 2], [1, 4], [1, 7], [1, 8], [1, 10], [2, 1], [2, 5], [2, 7], [2, 9], [3, 1], [3, 2], [3, 4], [3, 6], [3, 8], [4, 4], [4, 5], [4, 6], [4, 9], [4, 10], [5, 2], [5, 3], [5, 6], [5, 7], [6, 4], [7, 1], [7, 4], [7, 6], [7, 7], [7, 8], [7, 10], [8, 1], [8, 4], [8, 5], [8, 6], [8, 9], [8, 10], [9, 2], [9, 5], [9, 6], [10, 1], [10, 3], [10, 7], [10, 10]]
